c Sudoku solution
p cnf 729 0
159 0
175 0
219 0
222 0
243 0
327 0
346 0
394 0
468 0
485 0
553 0
592 0
614 0
631 0
676 0
689 0
379 0
737 0
762 0
811 0
121 0
863 0
895 0
932 0
412 0
517 0
872 0
971 0
986 0
566 0
969 0
799 0
278 0
477 0
773 0
574 0
454 0
142 0
358 0
382 0
361 0
652 0
751 0
856 0
183 0
255 0
957 0
887 0
784 0
998 0
647 0
665 0
281 0
588 0
491 0
693 0
449 0
541 0
628 0
116 0
234 0
138 0
164 0
267 0
197 0
296 0
726 0
718 0
745 0
944 0
848 0
824 0
839 0
423 0
436 0
925 0
913 0
315 0
333 0
529 0
535 0
